
Gurobi 12.0.2 (win64) logging started Wed Jun  4 16:57:24 2025

Set parameter LogFile to value "C:\Ioana\_uni\honours\slp\algorithm\Main_files\results\others\fatty_acids\Task_009_Sample002_irr_gurobi.log"
Gurobi Optimizer version 12.0.2 build v12.0.2rc0 (win64 - Windows 11.0 (26100.2))

CPU model: Intel(R) Core(TM) Ultra 5 125H, instruction set [SSE2|AVX|AVX2]
Thread count: 14 physical cores, 18 logical processors, using up to 18 threads

Non-default parameters:
TimeLimit  2200

Optimize a model with 47226 rows, 34496 columns and 146683 nonzeros
Model fingerprint: 0x07605f2f
Variable types: 17251 continuous, 17245 integer (17245 binary)
Coefficient statistics:
  Matrix range     [1e-04, 8e+04]
  Objective range  [3e-05, 9e-01]
  Bounds range     [1e+00, 1e+03]
  RHS range        [1e+00, 1e+00]
Presolve removed 30782 rows and 21544 columns
Presolve time: 0.52s
Presolved: 16444 rows, 12952 columns, 54662 nonzeros
Variable types: 6410 continuous, 6542 integer (6542 binary)
Found heuristic solution: objective 18.4748129

Root relaxation: objective 3.684776e-01, 0 iterations, 0.00 seconds (0.00 work units)

    Nodes    |    Current Node    |     Objective Bounds      |     Work
 Expl Unexpl |  Obj  Depth IntInf | Incumbent    BestBd   Gap | It/Node Time

*    0     0               0       0.3684776    0.36848  0.00%     -    0s

Explored 1 nodes (0 simplex iterations) in 0.68 seconds (0.45 work units)
Thread count was 18 (of 18 available processors)

Solution count 2: 0.368478 18.4748 

Optimal solution found (tolerance 1.00e-04)
Best objective 3.684776413820e-01, best bound 3.684776413820e-01, gap 0.0000%

Gurobi 12.0.2 (win64) logging started Thu Jun  5 15:33:54 2025

Set parameter LogFile to value "C:\Ioana\_uni\honours\slp\algorithm\Main_files\results\others\fatty_acids\Task_009_Sample002_irr_gurobi.log"
Gurobi Optimizer version 12.0.2 build v12.0.2rc0 (win64 - Windows 11.0 (26100.2))

CPU model: Intel(R) Core(TM) Ultra 5 125H, instruction set [SSE2|AVX|AVX2]
Thread count: 14 physical cores, 18 logical processors, using up to 18 threads

Non-default parameters:
TimeLimit  2200

Optimize a model with 47226 rows, 34496 columns and 146683 nonzeros
Model fingerprint: 0x07605f2f
Variable types: 17251 continuous, 17245 integer (17245 binary)
Coefficient statistics:
  Matrix range     [1e-04, 8e+04]
  Objective range  [3e-05, 9e-01]
  Bounds range     [1e+00, 1e+03]
  RHS range        [1e+00, 1e+00]
Presolve removed 30782 rows and 21544 columns
Presolve time: 0.54s
Presolved: 16444 rows, 12952 columns, 54662 nonzeros
Variable types: 6410 continuous, 6542 integer (6542 binary)
Found heuristic solution: objective 18.4748129

Root relaxation: objective 3.684776e-01, 0 iterations, 0.01 seconds (0.00 work units)

    Nodes    |    Current Node    |     Objective Bounds      |     Work
 Expl Unexpl |  Obj  Depth IntInf | Incumbent    BestBd   Gap | It/Node Time

*    0     0               0       0.3684776    0.36848  0.00%     -    0s

Explored 1 nodes (0 simplex iterations) in 0.71 seconds (0.45 work units)
Thread count was 18 (of 18 available processors)

Solution count 2: 0.368478 18.4748 

Optimal solution found (tolerance 1.00e-04)
Best objective 3.684776413820e-01, best bound 3.684776413820e-01, gap 0.0000%
